MARKOV
503
 2 2 2 2 2 2 2 2 2 2 2 2 2 2 2 2 2 2 2 2 2 2 2 2 2 2 2 2 2 2 2 2 2 2 2 2 2 2 2 2 2 2 2 2 2 2 2 2 2 2 2 2 2 2 2 2 2 2 2 2 2 2 2 2 2 2 2 2 2 2 2 2 2 2 2 2 2 2 2 2 2 2 2 2 2 2 2 2 2 2 2 2 2 2 2 2 2 2 2 2 2 2 2 2 2 2 2 2 2 2 2 2 2 2 2 2 2 2 2 2 2 2 2 2 2 2 2 2 2 2 2 2 2 2 2 2 2 2 2 2 2 2 2 2 2 2 2 2 2 2 2 2 2 2 2 2 2 2 2 2 2 2 2 2 2 2 2 2 2 2 2 2 2 2 2 2 2 2 2 2 2 2 2 2 2 2 2 2 2 2 2 2 2 2 2 2 2 2 2 2 2 2 2 2 2 2 2 2 2 2 2 2 2 2 2 2 2 2 2 2 2 2 2 2 2 2 2 2 2 2 2 2 2 2 2 2 2 2 2 2 2 2 2 2 2 2 2 2 2 2 2 2 2 2 2 2 2 2 2 2 2 2 2 2 2 2 2 2 2 2 2 2 2 2 2 2 2 2 2 2 2 2 2 2 2 2 2 2 2 2 2 2 2 2 2 2 2 2 2 2 2 2 2 2 2 2 2 2 2 2 2 2 2 2 2 2 2 2 2 2 2 2 2 2 2 2 2 2 2 2 2 2 2 2 2 2 2 2 2 2 2 2 2 2 2 2 2 2 2 2 2 2 2 2 2 2 2 2 2 2 2 2 2 2 2 2 2 2 2 2 2 2 2 2 2 2 2 2 2 2 2 2 2 2 2 2 2 2 2 2 2 2 2 2 2 2 2 2 2 2 2 2 2 2 2 2 2 2 2 2 2 2 2 2 2 2 2 2 2 2 2 2 2 2 2 2 2 2 2 2 2 2 2 2 2 2 2 2 2 2 2 2 2 2 2 2 2 2 2 2 2 2 2 2 2 2 2 2 2 2 2 2 2 2 2 2 2 2 2 2 2 2 2 2 2 2 2 2 2 2 2 2 2 2 2 2 2 2 2 2 2 2 2 2 2 2 2 2 2 2 2 2 2
512
3	73 173 502 
3	50 501 502 
3	20 500 501 
3	146 499 500 
3	56 498 499 
3	156 497 498 
3	54 496 497 
3	131 495 496 
3	149 494 495 
3	17 493 494 
3	65 492 493 
3	35 491 492 
3	3 490 491 
3	72 489 490 
3	58 488 489 
3	127 487 488 
3	13 486 487 
3	57 485 486 
3	32 484 485 
3	78 483 484 
3	118 482 483 
3	40 481 482 
3	29 480 481 
3	144 479 480 
3	121 478 479 
3	160 477 478 
3	139 476 477 
3	104 475 476 
3	84 474 475 
1	474 
3	18 46 473 
3	55 472 473 
3	26 471 472 
3	145 470 471 
1	470 
3	80 123 469 
3	66 468 469 
3	0 467 468 
3	128 466 467 
3	109 465 466 
3	79 464 465 
3	112 463 464 
3	33 462 463 
3	172 461 462 
3	150 460 461 
3	162 459 460 
3	166 458 459 
3	59 457 458 
3	22 456 457 
3	103 455 456 
3	141 454 455 
3	122 453 454 
3	155 452 453 
3	15 451 452 
3	135 450 451 
3	117 449 450 
3	163 448 449 
3	87 447 448 
3	51 446 447 
3	98 445 446 
3	168 444 445 
3	68 443 444 
3	134 442 443 
3	63 441 442 
3	10 440 441 
3	94 439 440 
3	111 438 439 
3	97 437 438 
3	147 436 437 
3	86 435 436 
3	116 434 435 
3	95 433 434 
3	25 432 433 
3	64 431 432 
3	67 430 431 
3	157 429 430 
3	75 428 429 
3	108 427 428 
3	44 426 427 
3	169 425 426 
3	7 424 425 
3	142 423 424 
3	113 422 423 
3	88 421 422 
3	114 420 421 
3	171 419 420 
3	62 418 419 
3	85 417 418 
3	91 416 417 
3	45 415 416 
3	129 414 415 
3	12 413 414 
3	38 412 413 
3	74 411 412 
3	140 410 411 
3	71 409 410 
3	100 408 409 
3	107 407 408 
3	42 406 407 
3	90 405 406 
1	405 
3	125 163 404 
3	20 403 404 
3	119 402 403 
3	159 401 402 
3	8 400 401 
3	43 399 400 
3	136 398 399 
3	130 397 398 
3	149 396 397 
3	30 395 396 
3	65 394 395 
3	137 393 394 
3	9 392 393 
3	35 391 392 
3	165 390 391 
3	127 389 390 
3	23 388 389 
3	13 387 388 
3	102 386 387 
3	53 385 386 
3	57 384 385 
3	2 383 384 
3	32 382 383 
3	78 381 382 
3	21 380 381 
3	93 379 380 
3	83 378 379 
3	144 377 378 
3	121 376 377 
3	1 375 376 
3	161 374 375 
3	160 373 374 
3	60 372 373 
3	139 371 372 
3	28 370 371 
3	138 369 370 
3	4 368 369 
3	96 367 368 
3	61 366 367 
1	366 
3	66 80 365 
3	128 364 365 
3	0 363 364 
3	109 362 363 
3	95 361 362 
3	112 360 361 
3	67 359 360 
3	64 358 359 
3	157 357 358 
3	115 356 357 
3	26 355 356 
3	145 354 355 
3	162 353 354 
3	166 352 353 
3	48 351 352 
3	59 350 351 
3	22 349 350 
3	108 348 349 
3	44 347 348 
3	106 346 347 
3	141 345 346 
3	114 344 345 
3	155 343 344 
3	15 342 343 
3	135 341 342 
3	117 340 341 
3	154 339 340 
3	87 338 339 
3	85 337 338 
3	63 336 337 
3	129 335 336 
3	12 334 335 
3	6 333 334 
3	38 332 333 
3	55 331 332 
3	143 330 331 
3	89 329 330 
3	97 328 329 
3	74 327 328 
3	147 326 327 
3	71 325 326 
3	100 324 325 
3	107 323 324 
3	132 322 323 
3	90 321 322 
1	321 
1	143 
3	66 80 320 
3	0 319 320 
3	128 318 319 
3	109 317 318 
3	95 316 317 
3	112 315 316 
3	64 314 315 
3	67 313 314 
3	157 312 313 
3	162 311 312 
3	166 310 311 
3	59 309 310 
3	22 308 309 
3	108 307 308 
3	44 306 307 
3	141 305 306 
3	114 304 305 
3	155 303 304 
3	15 302 303 
3	135 301 302 
3	117 300 301 
3	85 299 300 
3	129 298 299 
3	63 297 298 
3	12 296 297 
3	38 295 296 
3	97 294 295 
3	74 293 294 
3	147 292 293 
3	71 291 292 
3	100 290 291 
3	107 289 290 
3	90 288 289 
1	288 
3	123 128 287 
3	56 286 287 
3	149 285 286 
3	33 284 285 
3	35 283 284 
3	57 282 283 
3	162 281 282 
3	110 280 281 
3	22 279 280 
3	29 278 279 
3	81 277 278 
3	76 276 277 
3	24 275 276 
3	124 274 275 
3	141 273 274 
3	155 272 273 
3	135 271 272 
3	117 270 271 
3	87 269 270 
3	154 268 269 
3	146 267 268 
3	51 266 267 
3	151 265 266 
3	68 264 265 
3	143 263 264 
3	55 262 263 
3	39 261 262 
3	14 260 261 
3	86 259 260 
3	139 258 259 
3	148 257 258 
3	120 256 257 
3	31 255 256 
3	170 254 255 
3	54 253 254 
3	49 252 253 
3	67 251 252 
3	36 250 251 
3	157 249 250 
3	92 248 249 
3	152 247 248 
3	53 246 247 
3	48 245 246 
3	11 244 245 
3	82 243 244 
3	44 242 243 
3	69 241 242 
3	164 240 241 
3	113 239 240 
3	41 238 239 
3	5 237 238 
3	114 236 237 
3	47 235 236 
3	119 234 235 
3	19 233 234 
3	62 232 233 
3	153 231 232 
3	101 230 231 
3	40 229 230 
3	99 228 229 
3	74 227 228 
3	71 226 227 
3	158 225 226 
3	132 224 225 
3	80 223 224 
3	66 222 223 
3	0 221 222 
3	109 220 221 
3	112 219 220 
3	156 218 219 
3	167 217 218 
3	26 216 217 
3	145 215 216 
3	166 214 215 
3	59 213 214 
3	77 212 213 
3	15 211 212 
3	168 210 211 
3	105 209 210 
3	27 208 209 
3	134 207 208 
3	63 206 207 
3	94 205 206 
3	111 204 205 
3	89 203 204 
3	97 202 203 
3	52 201 202 
3	121 200 201 
3	147 199 200 
3	70 198 199 
3	95 197 198 
3	126 196 197 
3	25 195 196 
3	64 194 195 
3	115 193 194 
3	16 192 193 
3	108 191 192 
3	169 190 191 
3	133 189 190 
3	106 188 189 
3	88 187 188 
3	171 186 187 
3	85 185 186 
3	37 184 185 
3	34 183 184 
3	129 182 183 
3	13 181 182 
3	12 180 181 
3	6 179 180 
3	38 178 179 
3	100 177 178 
3	107 176 177 
3	42 175 176 
3	90 174 175 
1	174 
1	123 
1	128 
1	50 
1	56 
1	149 
1	33 
1	35 
1	150 
1	57 
1	162 
1	110 
1	22 
1	29 
1	76 
1	81 
1	24 
1	124 
1	141 
1	138 
1	122 
1	155 
1	18 
1	135 
1	117 
1	154 
1	87 
1	146 
1	51 
1	151 
1	68 
1	65 
1	9 
1	10 
1	55 
1	143 
1	2 
1	39 
1	14 
1	144 
1	86 
1	139 
1	116 
1	20 
1	148 
1	120 
1	31 
1	170 
1	54 
1	49 
1	67 
1	36 
1	58 
1	157 
1	102 
1	92 
1	152 
1	53 
1	48 
1	11 
1	82 
1	44 
1	69 
1	164 
1	142 
1	7 
1	113 
1	41 
1	5 
1	114 
1	46 
1	47 
1	173 
1	119 
1	62 
1	19 
1	153 
1	23 
1	101 
1	118 
1	40 
1	99 
1	74 
1	71 
1	158 
1	132 
1	61 
1	80 
1	73 
1	66 
1	0 
1	109 
1	79 
1	159 
1	112 
1	156 
1	172 
1	167 
1	72 
1	26 
1	145 
1	166 
1	59 
1	93 
1	103 
1	1 
1	77 
1	28 
1	84 
1	15 
1	163 
1	98 
1	168 
1	105 
1	27 
1	137 
1	134 
1	63 
1	94 
1	111 
1	89 
1	97 
1	52 
1	83 
1	121 
1	147 
1	4 
1	70 
1	125 
1	95 
1	126 
1	25 
1	64 
1	3 
1	115 
1	127 
1	16 
1	75 
1	32 
1	169 
1	108 
1	133 
1	106 
1	88 
1	160 
1	60 
1	104 
1	171 
1	85 
1	91 
1	45 
1	8 
1	37 
1	43 
1	131 
1	136 
1	130 
1	17 
1	30 
1	34 
1	165 
1	129 
1	13 
1	12 
1	6 
1	38 
1	78 
1	21 
1	140 
1	161 
1	100 
1	107 
1	42 
1	96 
1	90 
0	

8
 1 0 0.8 0.2 0 1 0 1
8
 1 0 0 1 0.5 0 0.5 1
8
 1 0 0 1 0.5 0 0.5 1
8
 1 0 0 1 0.5 0 0.5 1
8
 1 0 0 1 0.4 0 0.6 1
8
 1 0 0 1 0.4 0 0.6 1
8
 1 0 0 1 0.5 0 0.5 1
8
 1 0 0 1 0.89 0 0.11 1
8
 1 0 0 1 0.5 0 0.5 1
8
 1 0 0 1 0.01 0 0.99 1
8
 1 0 0 1 0.7 0 0.3 1
8
 1 0 0 1 0.5 0 0.5 1
8
 1 0 0 1 0.1 0 0.9 1
8
 1 0 0 1 0.89 0 0.11 1
8
 1 0 0 1 0 0 1 1
8
 1 0 0 1 0.5 0 0.5 1
8
 1 0 0 1 0.5 0 0.5 1
8
 1 0 0 1 0.5 0 0.5 1
8
 1 0 0 1 0.1 0 0.9 1
8
 1 0 0 1 0.8 0 0.2 1
8
 1 0 0 1 0.7 0 0.3 1
8
 1 0 0 1 0.8 0 0.2 1
8
 1 0 0 1 0.4 0 0.6 1
8
 1 0 0 1 0.5 0 0.5 1
8
 1 0 0 1 0.5 0 0.5 1
8
 1 0 0 1 0.7 0 0.3 1
8
 1 0 0 1 0.5 0 0.5 1
8
 1 0 0 1 0 0 1 1
8
 1 0 0 1 0.9 0 0.1 1
2
 0.03 1
8
 1 0 0.01 0.99 0 1 0 1
8
 1 0 0 1 0.05 0 0.95 1
8
 1 0 0 1 0.2 0 0.8 1
8
 1 0 0 1 0.05 0 0.95 1
2
 0.03 1
8
 1 0 0.9 0.1 0.05 0.95 0.045 0.955
8
 1 0 0 1 0.9 0 0.1 1
8
 1 0 0 1 0.05 0 0.95 1
8
 1 0 0 1 0.05 0 0.95 1
8
 1 0 0 1 0.05 0 0.95 1
8
 1 0 0 1 0.3 0 0.7 1
8
 1 0 0 1 0.1 0 0.9 1
8
 1 0 0 1 0.9 0 0.1 1
8
 1 0 0 1 0.3 0 0.7 1
8
 1 0 0 1 0.3 0 0.7 1
8
 1 0 0 1 0.05 0 0.95 1
8
 1 0 0 1 0.05 0 0.95 1
8
 1 0 0 1 0.05 0 0.95 1
8
 1 0 0 1 0.05 0 0.95 1
8
 1 0 0 1 0.3 0 0.7 1
8
 1 0 0 1 0.05 0 0.95 1
8
 1 0 0 1 0.3 0 0.7 1
8
 1 0 0 1 0.05 0 0.95 1
8
 1 0 0 1 0.05 0 0.95 1
8
 1 0 0 1 0.05 0 0.95 1
8
 1 0 0 1 0.05 0 0.95 1
8
 1 0 0 1 0.5 0 0.5 1
8
 1 0 0 1 0.4 0 0.6 1
8
 1 0 0 1 0.9 0 0.1 1
8
 1 0 0 1 0.5 0 0.5 1
8
 1 0 0 1 0.7 0 0.3 1
8
 1 0 0 1 0.9 0 0.1 1
8
 1 0 0 1 0.9 0 0.1 1
8
 1 0 0 1 0.05 0 0.95 1
8
 1 0 0 1 0.4 0 0.6 1
8
 1 0 0 1 0.9 0 0.1 1
8
 1 0 0 1 0.9 0 0.1 1
8
 1 0 0 1 0.05 0 0.95 1
8
 1 0 0 1 0.05 0 0.95 1
8
 1 0 0 1 0.5 0 0.5 1
8
 1 0 0 1 0.3 0 0.7 1
8
 1 0 0 1 0.05 0 0.95 1
8
 1 0 0 1 0.9 0 0.1 1
8
 1 0 0 1 0.05 0 0.95 1
8
 1 0 0 1 0.05 0 0.95 1
8
 1 0 0 1 0.05 0 0.95 1
8
 1 0 0 1 0.3 0 0.7 1
8
 1 0 0 1 0.05 0 0.95 1
8
 1 0 0 1 0.05 0 0.95 1
8
 1 0 0 1 0.9 0 0.1 1
8
 1 0 0 1 0.3 0 0.7 1
8
 1 0 0 1 0.5 0 0.5 1
8
 1 0 0 1 0.1 0 0.9 1
8
 1 0 0 1 0.9 0 0.1 1
8
 1 0 0 1 0.05 0 0.95 1
8
 1 0 0 1 0.9 0 0.1 1
8
 1 0 0 1 0.89 0 0.11 1
8
 1 0 0 1 0.05 0 0.95 1
8
 1 0 0 1 0.5 0 0.5 1
8
 1 0 0 1 0.09 0 0.91 1
8
 1 0 0 1 0.05 0 0.95 1
8
 1 0 0 1 0.05 0 0.95 1
8
 1 0 0 1 0.05 0 0.95 1
8
 1 0 0 1 0.05 0 0.95 1
8
 1 0 0 1 0.3 0 0.7 1
8
 1 0 0 1 0.05 0 0.95 1
8
 1 0 0 1 0.05 0 0.95 1
8
 1 0 0 1 0.05 0 0.95 1
8
 1 0 0 1 0.9 0 0.1 1
8
 1 0 0 1 0.05 0 0.95 1
2
 0.03 1
8
 1 0 0.1 0.9 0.9 0.1 0.09 0.91
8
 1 0 0 1 0.5 0 0.5 1
8
 1 0 0 1 0.89 0 0.11 1
8
 1 0 0 1 0.01 0 0.99 1
8
 1 0 0 1 0.89 0 0.11 1
8
 1 0 0 1 0 0 1 1
8
 1 0 0 1 0.89 0 0.11 1
8
 1 0 0 1 0.5 0 0.5 1
8
 1 0 0 1 0.5 0 0.5 1
8
 1 0 0 1 0.01 0 0.99 1
8
 1 0 0 1 0.7 0 0.3 1
8
 1 0 0 1 0.7 0 0.3 1
8
 1 0 0 1 0.01 0 0.99 1
8
 1 0 0 1 0.5 0 0.5 1
8
 1 0 0 1 0 0 1 1
8
 1 0 0 1 0.5 0 0.5 1
8
 1 0 0 1 0.89 0 0.11 1
8
 1 0 0 1 0.5 0 0.5 1
8
 1 0 0 1 0.89 0 0.11 1
8
 1 0 0 1 0.78 0 0.22 1
8
 1 0 0 1 0.5 0 0.5 1
8
 1 0 0 1 0.89 0 0.11 1
8
 1 0 0 1 0.1 0 0.9 1
8
 1 0 0 1 0.7 0 0.3 1
8
 1 0 0 1 0.89 0 0.11 1
8
 1 0 0 1 0.5 0 0.5 1
8
 1 0 0 1 0.89 0 0.11 1
8
 1 0 0 1 0.5 0 0.5 1
8
 1 0 0 1 0.5 0 0.5 1
8
 1 0 0 1 0 0 1 1
8
 1 0 0 1 0.89 0 0.11 1
8
 1 0 0 1 0.7 0 0.3 1
8
 1 0 0 1 0.89 0 0.11 1
8
 1 0 0 1 0.5 0 0.5 1
8
 1 0 0 1 0.8 0 0.2 1
8
 1 0 0 1 0.4 0 0.6 1
8
 1 0 0 1 0.89 0 0.11 1
8
 1 0 0 1 0.5 0 0.5 1
8
 1 0 0 1 0.89 0 0.11 1
2
 0.03 1
8
 1 0 0 1 0 1 0 1
8
 1 0 0 1 0 0 1 1
8
 1 0 0 1 0 0 1 1
8
 1 0 0 1 0 0 1 1
8
 1 0 0 1 0 0 1 1
8
 1 0 0 1 0 0 1 1
8
 1 0 0 1 0 0 1 1
8
 1 0 0 1 0 0 1 1
8
 1 0 0 1 0 0 1 1
8
 1 0 0 1 0 0 1 1
8
 1 0 0 1 0 0 1 1
8
 1 0 0 1 0 0 1 1
8
 1 0 0 1 0 0 1 1
8
 1 0 0 1 0 0 1 1
8
 1 0 0 1 0 0 1 1
8
 1 0 0 1 0 0 1 1
8
 1 0 0 1 0 0 1 1
8
 1 0 0 1 0 0 1 1
8
 1 0 0 1 0 0 1 1
8
 1 0 0 1 0 0 1 1
8
 1 0 0 1 0 0 1 1
8
 1 0 0 1 0 0 1 1
8
 1 0 0 1 0 0 1 1
8
 1 0 0 1 0 0 1 1
8
 1 0 0 1 0 0 1 1
8
 1 0 0 1 0 0 1 1
8
 1 0 0 1 0 0 1 1
8
 1 0 0 1 0 0 1 1
8
 1 0 0 1 0 0 1 1
8
 1 0 0 1 0 0 1 1
8
 1 0 0 1 0 0 1 1
8
 1 0 0 1 0 0 1 1
8
 1 0 0 1 0 0 1 1
8
 1 0 0 1 0 0 1 1
8
 1 0 0 1 0 0 1 1
8
 1 0 0 1 0 0 1 1
8
 1 0 0 1 0 0 1 1
8
 1 0 0 1 0 0 1 1
8
 1 0 0 1 0 0 1 1
8
 1 0 0 1 0 0 1 1
8
 1 0 0 1 0 0 1 1
8
 1 0 0 1 0 0 1 1
8
 1 0 0 1 0 0 1 1
8
 1 0 0 1 0 0 1 1
8
 1 0 0 1 0 0 1 1
2
 0.03 1
2
 0.03 1
8
 1 0 0.05 0.95 0.05 0.95 0.0025 0.9975
8
 1 0 0 1 0.05 0 0.95 1
8
 1 0 0 1 0.05 0 0.95 1
8
 1 0 0 1 0.05 0 0.95 1
8
 1 0 0 1 0.05 0 0.95 1
8
 1 0 0 1 0.05 0 0.95 1
8
 1 0 0 1 0.05 0 0.95 1
8
 1 0 0 1 0.05 0 0.95 1
8
 1 0 0 1 0.05 0 0.95 1
8
 1 0 0 1 0.05 0 0.95 1
8
 1 0 0 1 0.05 0 0.95 1
8
 1 0 0 1 0.05 0 0.95 1
8
 1 0 0 1 0.05 0 0.95 1
8
 1 0 0 1 0.05 0 0.95 1
8
 1 0 0 1 0.05 0 0.95 1
8
 1 0 0 1 0.05 0 0.95 1
8
 1 0 0 1 0.05 0 0.95 1
8
 1 0 0 1 0.05 0 0.95 1
8
 1 0 0 1 0.05 0 0.95 1
8
 1 0 0 1 0.05 0 0.95 1
8
 1 0 0 1 0.05 0 0.95 1
8
 1 0 0 1 0.05 0 0.95 1
8
 1 0 0 1 0.05 0 0.95 1
8
 1 0 0 1 0.05 0 0.95 1
8
 1 0 0 1 0.05 0 0.95 1
8
 1 0 0 1 0.05 0 0.95 1
8
 1 0 0 1 0.05 0 0.95 1
8
 1 0 0 1 0.05 0 0.95 1
8
 1 0 0 1 0.05 0 0.95 1
8
 1 0 0 1 0.05 0 0.95 1
8
 1 0 0 1 0.05 0 0.95 1
8
 1 0 0 1 0.05 0 0.95 1
8
 1 0 0 1 0.05 0 0.95 1
2
 0.03 1
8
 1 0 0 1 0.9 0.1 0 1
8
 1 0 0 1 0.4 0 0.6 1
8
 1 0 0 1 0.5 0 0.5 1
8
 1 0 0 1 0.9 0 0.1 1
8
 1 0 0 1 0.5 0 0.5 1
8
 1 0 0 1 0.5 0 0.5 1
8
 1 0 0 1 0 0 1 1
8
 1 0 0 1 0.89 0 0.11 1
8
 1 0 0 1 0.5 0 0.5 1
8
 1 0 0 1 0.4 0 0.6 1
8
 1 0 0 1 0.1 0 0.9 1
8
 1 0 0 1 0.5 0 0.5 1
8
 1 0 0 1 0.5 0 0.5 1
8
 1 0 0 1 0.1 0 0.9 1
8
 1 0 0 1 0 0 1 1
8
 1 0 0 1 0.5 0 0.5 1
8
 1 0 0 1 0.01 0 0.99 1
8
 1 0 0 1 0 0 1 1
8
 1 0 0 1 0 0 1 1
8
 1 0 0 1 0 0 1 1
8
 1 0 0 1 0.5 0 0.5 1
8
 1 0 0 1 0.9 0 0.1 1
8
 1 0 0 1 0.5 0 0.5 1
8
 1 0 0 1 0.9 0 0.1 1
8
 1 0 0 1 0.1 0 0.9 1
8
 1 0 0 1 0 0 1 1
8
 1 0 0 1 0.1 0 0.9 1
8
 1 0 0 1 0.5 0 0.5 1
8
 1 0 0 1 0.5 0 0.5 1
8
 1 0 0 1 0.5 0 0.5 1
8
 1 0 0 1 0.09 0 0.91 1
8
 1 0 0 1 0.5 0 0.5 1
8
 1 0 0 1 0.1 0 0.9 1
8
 1 0 0 1 0.09 0 0.91 1
8
 1 0 0 1 0.5 0 0.5 1
8
 1 0 0 1 0.5 0 0.5 1
8
 1 0 0 1 0 0 1 1
8
 1 0 0 1 0.5 0 0.5 1
8
 1 0 0 1 0 0 1 1
8
 1 0 0 1 0.5 0 0.5 1
8
 1 0 0 1 0.1 0 0.9 1
8
 1 0 0 1 0.57 0 0.43 1
8
 1 0 0 1 0 0 1 1
8
 1 0 0 1 0.5 0 0.5 1
8
 1 0 0 1 0.5 0 0.5 1
8
 1 0 0 1 0 0 1 1
8
 1 0 0 1 0.7 0 0.3 1
8
 1 0 0 1 0.5 0 0.5 1
8
 1 0 0 1 0.1 0 0.9 1
8
 1 0 0 1 0.4 0 0.6 1
8
 1 0 0 1 0.5 0 0.5 1
8
 1 0 0 1 0 0 1 1
8
 1 0 0 1 0.5 0 0.5 1
8
 1 0 0 1 0.89 0 0.11 1
8
 1 0 0 1 0.5 0 0.5 1
8
 1 0 0 1 0.5 0 0.5 1
8
 1 0 0 1 0.5 0 0.5 1
8
 1 0 0 1 0.5 0 0.5 1
8
 1 0 0 1 0.4 0 0.6 1
8
 1 0 0 1 0.5 0 0.5 1
8
 1 0 0 1 0 0 1 1
8
 1 0 0 1 0 0 1 1
8
 1 0 0 1 0.1 0 0.9 1
8
 1 0 0 1 0 0 1 1
8
 1 0 0 1 0 0 1 1
8
 1 0 0 1 0.9 0 0.1 1
8
 1 0 0 1 0 0 1 1
8
 1 0 0 1 0 0 1 1
8
 1 0 0 1 0.1 0 0.9 1
8
 1 0 0 1 0.4 0 0.6 1
8
 1 0 0 1 0.09 0 0.91 1
8
 1 0 0 1 0 0 1 1
8
 1 0 0 1 0 0 1 1
8
 1 0 0 1 0 0 1 1
8
 1 0 0 1 0 0 1 1
8
 1 0 0 1 0.5 0 0.5 1
8
 1 0 0 1 0 0 1 1
8
 1 0 0 1 0.7 0 0.3 1
8
 1 0 0 1 0.5 0 0.5 1
8
 1 0 0 1 0.89 0 0.11 1
8
 1 0 0 1 0.9 0 0.1 1
8
 1 0 0 1 0 0 1 1
8
 1 0 0 1 0.9 0 0.1 1
8
 1 0 0 1 0.5 0 0.5 1
8
 1 0 0 1 0 0 1 1
8
 1 0 0 1 0 0 1 1
8
 1 0 0 1 0.5 0 0.5 1
8
 1 0 0 1 0.5 0 0.5 1
8
 1 0 0 1 0 0 1 1
8
 1 0 0 1 0.7 0 0.3 1
8
 1 0 0 1 0 0 1 1
8
 1 0 0 1 0.5 0 0.5 1
8
 1 0 0 1 0.9 0 0.1 1
8
 1 0 0 1 0 0 1 1
8
 1 0 0 1 0 0 1 1
8
 1 0 0 1 0.09 0 0.91 1
8
 1 0 0 1 0 0 1 1
8
 1 0 0 1 0.9 0 0.1 1
8
 1 0 0 1 0.5 0 0.5 1
8
 1 0 0 1 0 0 1 1
8
 1 0 0 1 0.9 0 0.1 1
8
 1 0 0 1 0.9 0 0.1 1
8
 1 0 0 1 0 0 1 1
8
 1 0 0 1 0.5 0 0.5 1
8
 1 0 0 1 0.5 0 0.5 1
8
 1 0 0 1 0 0 1 1
8
 1 0 0 1 0.5 0 0.5 1
8
 1 0 0 1 0 0 1 1
8
 1 0 0 1 0.1 0 0.9 1
8
 1 0 0 1 0 0 1 1
8
 1 0 0 1 0 0 1 1
8
 1 0 0 1 0 0 1 1
8
 1 0 0 1 0.9 0 0.1 1
8
 1 0 0 1 0.01 0 0.99 1
2
 0.03 1
2
 0.9995 0.0005
2
 0.99995 5e-05
2
 0.9999 0.0001
2
 0.9999 0.0001
2
 0.99999 1e-05
2
 0.99975 0.00025
2
 0.99999 1e-05
2
 0.9999 0.0001
2
 0.99999 1e-05
2
 0.9999 0.0001
2
 0.9999 0.0001
2
 0.99995 5e-05
2
 0.9999 0.0001
2
 0.99989 0.00011
2
 0.999999 1e-06
2
 0.9999 0.0001
2
 0.9999 0.0001
2
 0.9999 0.0001
2
 0.9999 0.0001
2
 0.9999 0.0001
2
 0.99998 2e-05
2
 0.9998 0.0002
2
 0.99999 1e-05
2
 0.9999 0.0001
2
 0.998 0.002
2
 0.99995 5e-05
2
 0.99974 0.00026
2
 0.999998 2e-06
2
 0.99989 0.00011
2
 0.99996 4e-05
2
 1 1e-07
2
 0.999995 5e-06
2
 0.99982 0.00018
2
 0.99998 2e-05
2
 0.9999 0.0001
2
 0.9999 0.0001
2
 0.9999 0.0001
2
 0.9999 0.0001
2
 0.9999 0.0001
2
 0.9999 0.0001
2
 0.99999 1e-05
2
 0.9999 0.0001
2
 1 1e-07
2
 0.99996 4e-05
2
 0.99995 5e-05
2
 0.9999 0.0001
2
 0.99995 5e-05
2
 0.99999 1e-05
2
 0.9999 0.0001
2
 0.9999 0.0001
2
 0.99982 0.00018
2
 0.9997 0.0003
2
 0.9999 0.0001
2
 0.9999 0.0001
2
 0.99995 5e-05
2
 0.9998 0.0002
2
 0.9999 0.0001
2
 0.99998 2e-05
2
 0.99999 1e-05
2
 0.9999 0.0001
2
 0.9999 0.0001
2
 1 1e-07
2
 0.9995 0.0005
2
 0.99922 0.00078
2
 0.9997 0.0003
2
 0.9998 0.0002
2
 0.9998 0.0002
2
 0.99995 5e-05
2
 0.9998 0.0002
2
 0.99994 6e-05
2
 0.99999 1e-05
2
 0.9999 0.0001
2
 0.9999 0.0001
2
 0.9999 0.0001
2
 0.9995 0.0005
2
 0.99984 0.00016
2
 0.9999 0.0001
2
 0.999 0.001
2
 1 1e-07
2
 0.996 0.004
2
 0.9999 0.0001
2
 0.9999 0.0001
2
 0.99998 2e-05
2
 0.99995 5e-05
2
 0.9999 0.0001
2
 0.99975 0.00025
2
 0.9999 0.0001
2
 0.99996 4e-05
2
 0.99985 0.00015
2
 0.9999 0.0001
2
 0.9999 0.0001
2
 0.9991 0.0009
2
 0.99998 2e-05
2
 0.99995 5e-05
2
 0.9999 0.0001
2
 1 2e-07
2
 0.99995 5e-05
2
 0.9999 0.0001
2
 0.9985 0.0015
2
 0.99987 0.00013
2
 0.99995 5e-05
2
 0.99998 2e-05
2
 0.9999 0.0001
2
 0.999 0.001
2
 0.99988 0.00012
2
 0.99995 5e-05
2
 0.99999 1e-05
2
 0.9999 0.0001
2
 0.9999 0.0001
2
 0.9995 0.0005
2
 0.9999 0.0001
2
 1 1.6e-07
2
 0.9999 0.0001
2
 0.9999 0.0001
2
 0.99999 1e-05
2
 0.999907 9.332e-05
2
 0.9999 0.0001
2
 0.9994 0.0006
2
 0.999969 3.12e-05
2
 0.99995 5e-05
2
 0.9999 0.0001
2
 0.9999 0.0001
2
 0.9999 0.0001
2
 0.99999 1e-05
2
 0.9999 0.0001
2
 0.9999 0.0001
2
 0.9998 0.0002
2
 1 1e-07
2
 0.9999 0.0001
2
 0.9995 0.0005
2
 0.9999 0.0001
2
 0.99995 5e-05
2
 0.99996 4e-05
2
 0.99997 3e-05
2
 0.99991 9e-05
2
 0.99994 6e-05
2
 0.999 0.001
2
 0.9998 0.0002
2
 0.9998 0.0002
2
 0.9999 0.0001
2
 0.9999 0.0001
2
 0.99997 3e-05
2
 0.9999 0.0001
2
 1 1e-07
2
 0.9999 0.0001
2
 0.99992 8e-05
2
 0.9995 0.0005
2
 0.9999 0.0001
2
 0.9999 0.0001
2
 0.99995 5e-05
2
 0.9999 0.0001
2
 0.9999 0.0001
2
 0.99996 4e-05
2
 0.9999 0.0001
2
 0.9999 0.0001
2
 0.99995 5e-05
2
 0.999 0.001
2
 0.99998 2e-05
2
 0.99997 3e-05
2
 0.99998 2e-05
2
 0.9999 0.0001
2
 0.99999 1e-05
2
 0.9999 0.0001
2
 0.99996 4e-05
2
 0.9999 0.0001
2
 1 1e-07
2
 0.9999 0.0001
2
 0.9995 0.0005
2
 0.9999 0.0001
2
 0.99997 3e-05
2
 0.99998 2e-05
2
 0.9999 0.0001
2
 0.99996 4e-05
2
 0.99993 7e-05
1
 1

